Reading model...
...model read.
creating competitive generators file...
...competitive generators recorded.
Loading data...
.. real-time data read.
Compiling instance...
0.0
0.0
0.0
0.0
...instance created.
Creating Offer Mitigation (model will solve as dispatch if TRUE)...
...storage offer mitigation file created
Converting model to MPEC...
...converted
NOTE: initial MIP solve with only storage competitive to get feasible solution
Solving...

Welcome to IBM(R) ILOG(R) CPLEX(R) Interactive Optimizer 12.9.0.0
  with Simplex, Mixed Integer & Barrier Optimizers
5725-A06 5725-A29 5724-Y48 5724-Y49 5724-Y54 5724-Y55 5655-Y21
Copyright IBM Corp. 1988, 2019.  All Rights Reserved.

Type 'help' for a list of available commands.
Type 'help' followed by a command name for more
information on commands.

CPLEX> Logfile 'cplex.log' closed.
Logfile 'C:\Users\llavin\Desktop\test826\logs\tmpnrecz9b6.cplex.log' open.
CPLEX> New value for parallel optimization mode: -1
CPLEX> New value for mixed integer optimality gap tolerance: 0.05
CPLEX> New value for feasibility tolerance: 1e-09
CPLEX> New value for emphasis for MIP optimization: 1
CPLEX> New value for deterministic time limit in ticks: 100000
CPLEX> Problem 'C:\Users\llavin\Desktop\test826\logs\tmpkk85jw5s.pyomo.lp' read.
Read time = 0.55 sec. (28.54 ticks)
CPLEX> Problem name         : C:\Users\llavin\Desktop\test826\logs\tmpkk85jw5s.pyomo.lp
Objective sense      : Maximize
Variables            :  107783  [Nneg: 1,  Box: 44058,  Free: 8928,
                                 Binary: 54796]
Objective nonzeros   :   19010
Linear constraints   :  246901  [Less: 82864,  Greater: 118424,  Equal: 45613]
  Nonzeros           :  619805
  RHS nonzeros       :  136511

Variables            : Min LB: -5000.000        Max UB: 8000.000       
Objective nonzeros   : Min   : 0.1666667        Max   : 208.3333       
Linear constraints   :
  Nonzeros           : Min   : 0.1666667        Max   : 499791.7       
  RHS nonzeros       : Min   : 0.1666667        Max   : 500000.0       
CPLEX> CPXPARAM_Parallel                                -1
CPXPARAM_Emphasis_MIP                            1
CPXPARAM_Simplex_Tolerances_Feasibility          1.0000000000000001e-09
CPXPARAM_DetTimeLimit                            100000
CPXPARAM_MIP_Tolerances_MIPGap                   0.050000000000000003
Tried aggregator 3 times.
MIP Presolve eliminated 173248 rows and 34233 columns.
MIP Presolve added 7727 rows and 0 columns.
MIP Presolve modified 53124 coefficients.
Aggregator did 26208 substitutions.
Reduced MIP has 55172 rows, 46958 columns, and 159635 nonzeros.
Reduced MIP has 18657 binaries, 0 generals, 0 SOSs, and 0 indicators.
Presolve time = 0.63 sec. (353.67 ticks)
Probing fixed 894 vars, tightened 16538 bounds.
Probing time = 0.50 sec. (21.82 ticks)
Tried aggregator 2 times.
MIP Presolve eliminated 1996 rows and 1813 columns.
MIP Presolve modified 7056 coefficients.
Aggregator did 80 substitutions.
Reduced MIP has 53096 rows, 45065 columns, and 147084 nonzeros.
Reduced MIP has 17758 binaries, 0 generals, 0 SOSs, and 0 indicators.
Presolve time = 0.31 sec. (275.20 ticks)
Probing fixed 5 vars, tightened 437 bounds.
Probing time = 0.55 sec. (19.24 ticks)
Clique table members: 77675.
MIP emphasis: integer feasibility.
MIP search method: dynamic search.
Parallel mode: opportunistic, using up to 32 threads.
Root relaxation solution time = 1.23 sec. (1725.97 ticks)

        Nodes                                         Cuts/
   Node  Left     Objective  IInf  Best Integer    Best Bound    ItCnt     Gap

      0     0      -35.9727   193                    -35.9727     7768         
*     0     0      integral     0      -35.9727      -35.9727     7768    0.00%
Elapsed time = 6.22 sec. (5889.48 ticks, tree = 0.01 MB, solutions = 1)

Root node processing (before b&c):
  Real time             =    6.27 sec. (5893.47 ticks)
Parallel b&c, 32 threads:
  Real time             =    0.00 sec. (0.00 ticks)
  Sync time (average)   =    0.00 sec.
  Wait time (average)   =    0.00 sec.
                          ------------
Total (root+branch&cut) =    6.27 sec. (5893.47 ticks)

Solution pool: 1 solution saved.

MIP - Integer optimal solution:  Objective = -3.5972729488e+01
Solution time =    6.30 sec.  Iterations = 7768  Nodes = 0
Deterministic time = 5893.78 ticks  (935.97 ticks/sec)

CPLEX> Incumbent solution written to file 'C:\Users\llavin\Desktop\test826\logs\tmpvy7k2iwd.cplex.sol'.
CPLEX> NOTE: no warmstart specified for MIP iteration, default behavior is true
NOTE: resolving with all competitive generators using storage-only solution to warmstart
Solving...

Welcome to IBM(R) ILOG(R) CPLEX(R) Interactive Optimizer 12.9.0.0
  with Simplex, Mixed Integer & Barrier Optimizers
5725-A06 5725-A29 5724-Y48 5724-Y49 5724-Y54 5724-Y55 5655-Y21
Copyright IBM Corp. 1988, 2019.  All Rights Reserved.

Type 'help' for a list of available commands.
Type 'help' followed by a command name for more
information on commands.

CPLEX> Logfile 'cplex.log' closed.
Logfile 'C:\Users\llavin\Desktop\test826\logs\tmpmpfac_ta.cplex.log' open.
CPLEX> New value for parallel optimization mode: -1
CPLEX> New value for mixed integer optimality gap tolerance: 0.05
CPLEX> New value for feasibility tolerance: 1e-09
CPLEX> New value for emphasis for MIP optimization: 1
CPLEX> New value for deterministic time limit in ticks: 100000
CPLEX> Problem 'C:\Users\llavin\Desktop\test826\logs\tmp9ycfixtf.pyomo.lp' read.
Read time = 0.55 sec. (28.59 ticks)
CPLEX> MIP start file 'C:\Users\llavin\Desktop\test826\logs\tmp6m2ht9rr.cplex.mst' read.
CPLEX> Problem name         : C:\Users\llavin\Desktop\test826\logs\tmp9ycfixtf.pyomo.lp
Objective sense      : Maximize
Variables            :  109223  [Nneg: 1,  Box: 45498,  Free: 8928,
                                 Binary: 54796]
Objective nonzeros   :   20402
Linear constraints   :  246901  [Less: 82864,  Greater: 118424,  Equal: 45613]
  Nonzeros           :  619805
  RHS nonzeros       :  136511

Variables            : Min LB: -5000.000        Max UB: 8000.000       
Objective nonzeros   : Min   : 0.1666667        Max   : 208.3333       
Linear constraints   :
  Nonzeros           : Min   : 0.1666667        Max   : 499791.7       
  RHS nonzeros       : Min   : 0.1666667        Max   : 500000.0       
CPLEX> CPXPARAM_Parallel                                -1
CPXPARAM_Emphasis_MIP                            1
CPXPARAM_Simplex_Tolerances_Feasibility          1.0000000000000001e-09
CPXPARAM_DetTimeLimit                            100000
CPXPARAM_MIP_Tolerances_MIPGap                   0.050000000000000003
Warning:  No solution found from 1 MIP starts.
Retaining values of one MIP start for possible repair.
Tried aggregator 3 times.
MIP Presolve eliminated 173248 rows and 35673 columns.
MIP Presolve added 7727 rows and 0 columns.
MIP Presolve modified 53124 coefficients.
Aggregator did 26208 substitutions.
Reduced MIP has 55172 rows, 46958 columns, and 159635 nonzeros.
Reduced MIP has 18657 binaries, 0 generals, 0 SOSs, and 0 indicators.
Presolve time = 0.63 sec. (354.42 ticks)
Probing fixed 894 vars, tightened 16538 bounds.
Probing time = 0.50 sec. (21.82 ticks)
Tried aggregator 2 times.
MIP Presolve eliminated 1996 rows and 1813 columns.
MIP Presolve modified 7056 coefficients.
Aggregator did 80 substitutions.
Reduced MIP has 53096 rows, 45065 columns, and 147084 nonzeros.
Reduced MIP has 17758 binaries, 0 generals, 0 SOSs, and 0 indicators.
Presolve time = 0.30 sec. (275.22 ticks)
Probing fixed 5 vars, tightened 437 bounds.
Probing time = 0.55 sec. (19.24 ticks)
Clique table members: 77675.
MIP emphasis: integer feasibility.
MIP search method: dynamic search.
Parallel mode: opportunistic, using up to 32 threads.
Root relaxation solution time = 1.44 sec. (1849.46 ticks)

        Nodes                                         Cuts/
   Node  Left     Objective  IInf  Best Integer    Best Bound    ItCnt     Gap

      0     0     1255.2186   386                   1255.2186     8977         
      0     0     1255.2186    74                   Cuts: 260     9094         
      0     0     1220.6472    25                   Cuts: 195     9155         
      0     0     1220.6472    23                    Cuts: 22     9165         
Repair heuristic found nothing.
      0    23      832.5912    23                     Cuts: 4     9417         
Elapsed time = 9.38 sec. (5074.57 ticks, tree = 0.07 MB, solutions = 0)
    319    87      338.8804    18                   1167.9370    10046         
    639   130      770.5332    25                   1167.9370    11141         
*   669+  274                          943.4631     1167.9370            23.79%

Cover cuts applied:  5
Implied bound cuts applied:  2
Flow cuts applied:  229
Mixed integer rounding cuts applied:  7
Gomory fractional cuts applied:  50

Root node processing (before b&c):
  Real time             =    6.77 sec. (5023.90 ticks)
Parallel b&c, 32 threads:
  Real time             =    7.50 sec. (799.25 ticks)
  Sync time (average)   =    2.85 sec.
  Wait time (average)   =    0.00 sec.
                          ------------
Total (root+branch&cut) =   14.27 sec. (5823.14 ticks)

Solution pool: 2 solutions saved.

MIP - Integer optimal, tolerance (0.05/1e-06):  Objective =  9.4346307846e+02
Current MIP best bound =  9.8660273162e+02 (gap = 43.1397, 4.57%)
Solution time =   14.30 sec.  Iterations = 18691  Nodes = 800 (4)
Deterministic time = 5823.46 ticks  (407.32 ticks/sec)

CPLEX> Incumbent solution written to file 'C:\Users\llavin\Desktop\test826\logs\tmpsc0yjmsy.cplex.sol'.
CPLEX> Exporting results... 
